c parity= 1 1 0 0 0 1 1 0 0 1 1 0 0 1 0 1 0 1 0 1 1 1 1 0 1 0 0 1 1 1 0 0 
c e= 0.25
p cnf 96 65
x 1 2 4 6 7 8 9 13 14 15 17 18 20 21 24 25 26 28 -33 0
x 3 4 10 11 14 16 19 20 23 24 25 26 28 29 -34 0
x 3 4 6 8 9 19 22 23 24 25 27 29 30 31 32 -35 0
x 1 2 5 10 12 15 19 22 23 26 27 28 29 31 32 -36 0
x -3 6 7 8 9 11 12 13 14 15 16 18 21 23 24 28 30 -37 0
x 5 6 8 10 12 13 16 18 19 20 21 23 25 27 29 32 -38 0
x 1 3 4 5 7 8 10 12 14 16 17 18 19 20 21 25 28 29 -39 0
x 5 7 9 11 14 16 18 21 22 23 25 27 28 29 30 32 -40 0
x 1 2 3 6 8 10 14 17 18 19 21 23 24 25 26 32 -41 0
x -2 5 8 10 11 12 14 15 16 17 19 20 24 27 -42 0
x 1 2 5 6 9 11 12 13 15 16 17 18 21 22 23 26 27 28 29 31 -43 0
x -3 5 9 11 14 15 17 18 21 23 24 25 26 27 32 -44 0
x -1 3 8 9 13 15 20 21 25 26 31 -45 0
x 1 2 6 8 11 13 14 16 18 19 20 21 23 24 26 27 29 31 -46 0
x -2 3 5 6 8 12 14 15 17 18 24 25 28 31 32 -47 0
x 1 2 3 5 7 9 10 11 14 15 20 21 22 23 24 25 28 30 31 -48 0
x 2 3 4 6 12 13 14 15 16 19 21 22 23 24 26 29 31 32 -49 0
x -1 3 4 5 6 8 12 15 16 17 22 27 28 30 31 32 -50 0
x 1 3 4 6 9 11 12 14 15 16 17 19 20 22 23 24 27 28 29 30 32 -51 0
x 1 2 5 6 7 8 10 14 15 16 19 22 23 24 28 29 30 31 -52 0
x 1 2 4 5 6 9 10 15 18 20 21 25 26 29 31 32 -53 0
x -1 2 4 5 6 7 10 11 14 15 16 17 19 22 23 26 27 31 -54 0
x 3 9 15 17 18 20 21 23 25 26 27 29 30 31 32 -55 0
x 1 6 7 9 10 12 13 14 15 17 18 20 21 22 23 24 29 31 32 -56 0
x -2 3 5 6 11 13 14 16 17 23 27 28 30 31 -57 0
x 1 5 7 8 9 10 11 14 18 21 25 26 27 29 31 32 -58 0
x 1 2 5 7 8 10 11 12 13 15 16 17 18 19 21 23 25 26 28 31 -59 0
x 1 3 5 10 12 13 14 18 19 23 24 26 29 30 32 -60 0
x 3 4 6 7 8 9 10 11 13 16 17 19 24 25 27 28 30 31 32 -61 0
x -3 4 6 7 8 11 12 14 15 17 19 20 27 28 29 -62 0
x -4 5 6 8 9 10 16 18 19 23 25 27 29 30 31 32 -63 0
x -1 2 4 8 9 10 11 13 14 15 17 22 23 24 25 29 32 -64 0
x 1 2 4 7 9 13 17 18 23 25 28 29 31 -65 0
x 2 4 5 8 9 10 11 12 13 14 15 20 21 22 23 24 26 30 31 -66 0
x -1 2 3 5 6 7 12 14 15 19 20 21 22 25 28 29 30 32 -67 0
x 1 5 6 7 9 10 11 12 16 19 21 24 26 27 28 30 -68 0
x 1 3 5 7 8 10 11 14 15 17 19 21 23 24 25 27 29 31 32 -69 0
x 1 2 6 7 9 12 13 14 19 23 24 27 28 32 -70 0
x -2 4 5 6 9 11 13 14 17 18 19 21 22 23 26 27 29 30 31 -71 0
x -1 2 4 8 9 12 15 16 19 22 23 24 25 27 28 30 31 -72 0
x -1 2 5 6 7 9 11 12 26 27 28 30 32 -73 0
x -1 2 5 10 11 13 14 15 17 20 23 24 26 28 29 30 32 -74 0
x -1 2 3 4 6 9 13 14 21 24 29 -75 0
x -1 2 5 6 7 10 11 12 14 17 18 20 21 22 23 24 26 31 32 -76 0
x -4 5 6 8 10 11 13 16 19 20 21 22 23 26 29 30 32 -77 0
x 1 2 3 5 6 8 10 11 12 14 18 20 21 22 23 24 28 29 32 -78 0
x 1 2 5 10 11 12 15 21 26 29 31 -79 0
x -2 3 5 7 8 9 11 15 17 18 19 21 26 27 30 -80 0
x -1 5 6 7 8 9 10 13 14 16 17 18 24 26 27 28 31 32 -81 0
x -1 2 4 7 8 12 13 15 19 20 22 24 25 27 28 30 31 32 -82 0
x 6 8 10 11 13 14 15 16 18 20 23 24 25 -83 0
x -1 3 6 8 10 13 14 16 18 21 23 26 28 29 31 32 -84 0
x 1 2 4 5 6 7 9 10 11 13 14 15 16 17 20 21 26 28 29 -85 0
x 1 2 3 4 8 9 11 14 16 17 18 20 24 25 26 27 29 30 31 -86 0
x 7 8 9 12 13 14 15 21 25 26 28 29 -87 0
x -2 4 9 10 11 12 13 17 20 25 27 29 32 -88 0
x -4 10 11 15 16 19 22 23 24 26 28 29 30 31 -89 0
x -1 3 4 5 9 12 13 17 19 20 24 25 29 30 31 -90 0
x 6 7 9 10 11 12 17 18 21 22 27 28 31 32 -91 0
x 1 2 6 7 8 11 12 13 15 16 18 21 23 26 27 28 29 32 -92 0
x 1 2 6 8 10 11 12 13 14 20 21 22 24 25 27 29 31 -93 0
x -3 4 7 8 9 13 14 15 16 18 20 21 25 26 27 30 31 32 -94 0
x -3 6 7 13 15 16 18 20 22 23 24 26 29 -95 0
x 1 4 6 8 11 15 16 17 19 24 25 26 27 28 29 -96 0
d 48 33 34 35 36 37 38 39 40 41 42 43 44 45 46 47 48 49 50 51 52 53 54 55 56 57 58 59 60 61 62 63 64 65 66 67 68 69 70 71 72 73 74 75 76 77 78 79 80 81 82 83 84 85 86 87 88 89 90 91 92 93 94 95 96 0
